50 8
859 191
518 694
401 281
573 422
701 602
346 737
409 395
244 727
504 711
687 549
338 877
381 232
246 815
310 488
362 958
650 533
469 733
596 713
540 598
754 205
638 479
646 712
356 867
628 565
455 740
744 882
368 391
470 471
298 855
548 645
489 411
742 786
717 762
798 502
385 795
628 630
544 546
774 111
349 863
511 259
895 253
652 770
640 824
744 462
299 171
571 448
445 913
370 182
312 328
739 478
